32      4       
20      19      17      18      
0       0       0       0       0       2       2       15      
1       16      8       7       13      1       3       
8       8       9       12      18      1       4       
1       11      10      7       6       1       5       
2       13      14      5       11      1       6       
2       15      19      16      12      1       7       
9       10      6       10      8       2       8       19      
3       3       19      5       8       1       9       
9       10      4       10      18      1       10      
4       20      4       3       2       2       11      31      
2       6       6       2       11      1       12      
2       4       13      17      8       1       13      
6       5       18      10      2       2       14      30      
6       5       12      1       3       3       16      28      29      
6       4       2       12      1       4       18      28      29      30      
8       16      6       11      1       2       17      24      
6       10      5       5       4       1       18      
1       13      10      5       6       3       20      26      27      
10      14      17      17      18      2       20      26      
9       20      19      16      16      1       21      
10      2       11      5       6       1       22      
10      5       2       3       11      1       23      
5       14      4       6       12      1       25      
5       15      19      8       11      1       26      
2       8       9       5       9       1       32      
4       16      9       17      18      1       32      
5       9       4       5       1       1       32      
3       9       7       17      18      1       32      
8       1       7       1       12      1       32      
10      9       3       6       5       1       32      
4       9       9       11      1       1       32      
0       0       0       0       0       0       
